
 102   30
  10   10   10   10   10   10   10   10   10   10   10   10   10   10   10   10   10   10   10   10   10   10   10   10   10   10   10   10   10   10

   0   0   0   0   0   0   0   0   0   0   0   0   0   0   0   0   0   0   0   0   0   0   0   0   0   0   0   0   0   0   0  27 2 3 4 5 6 7 8 9 10 11 13 14 15 17 18 19 20 22 23 24 26 27 28 30 32 37 41 
   7   0   0   0   0   0   0   0   0   0   0   0   0   0   0   1   1   0   0   0   0   1   0   0   0   5   0   0   0   0   1  18 101 77 76 72 67 65 58 57 55 51 50 48 46 45 43 42 35 12 
   6   0   0   0   0   0   0   0   1   0   0   2   0   0   1   0   0   6   0   0   0   0   0   2   1   0   0   0   0   0   0  19 101 76 72 67 66 63 58 57 56 55 54 52 51 49 45 42 36 34 16 
   2   0   2   0   0   1   0   0   6   0   0   0   0   0   0   0   0   0   0   0   1   0   0   4   7   0   0   0   0   1   0  18 80 79 77 72 67 64 61 58 56 54 38 36 35 33 31 29 25 21 
   3   0   0   0   3   7   0   0   0   0   0   0   0   0   0   0   0   4   0   0   6   0   0   0   0   0   0   0   0   0   0  12 101 100 76 66 64 57 55 54 53 51 34 16 
   1   0   0   0   0   0   1   0   0   0   0   0   2   0   0   0   0   0   0   0   0   0   0   8   0   0   0   0   0   0   0  25 101 100 99 80 78 76 72 71 70 66 65 64 63 62 61 60 59 58 57 56 51 50 43 38 36 
   1   0   0   0   0   0   0   0   0   0   0   0   0   0   0   0   0   0   0   0   0   0   0   0   0   0   0   0   0   0   0  21 101 100 80 79 78 77 76 75 70 69 67 66 64 57 56 50 49 46 45 43 25 
   6   0   0   0   0   9   0   1   0   0   0   0   0   0   0   0   0   0   0   0   0   0   0   0   0   0   0   0   0   0   0  18 96 79 77 72 66 64 62 60 58 57 56 54 50 49 42 38 36 33 
   3   2   0   0   0   0   0   0   0   0   0   0   0   0   0   0   0   5   2   0   0   0   0   0   0   0   0   0   0   0   0  18 99 98 80 79 77 67 65 64 62 61 53 52 51 50 49 42 38 33 
   7   6   0   0   0   0   9   0   0   0   0   0   0   0   0   0   0   0   0   0   0   0   0   0   0   0   0   0   0   0   0  18 99 80 79 77 76 71 65 57 56 54 51 50 49 47 44 40 39 35 
   8   0   0   0   0   0   0   6   5   3   0   0   0   0   0   0   0   9   0   0   0   0   0   0   0   0   0   0   0   9   0  15 101 100 79 77 69 68 65 63 60 59 58 57 50 35 31 
  10   0   0   0   0   0   0   0   0   0   0   0   0   1   0   0   0   0   0   0   0   0   0   0   7   6   0   0   0   0   0  11 80 79 64 63 62 56 52 49 38 34 33 
   5   0   0   0   0   0   5   0   0   7   0   0   0   7   0   0   0   0   5   3   6   5   0   0   0   0   0   1   0   0   0  19 100 99 96 80 79 78 77 74 72 71 68 67 66 57 55 54 51 39 38 
   3   0   0   0   0   0   0   7   8   0   0   0   0   0   0   0   0   0   0   0   6   0   0   0   0   0   0   0   5   0   0  17 93 80 79 77 76 75 70 66 64 63 62 59 57 56 52 50 36 
   8   0   0   0   0   0   0   0   0   3   0   0   0   6   0   0   0   0   0   0   7   2   0   9   0   0   0   0   0   0   0  10 98 80 76 75 68 65 60 50 35 31 
   3   0   0   0   0   0   8   0   0   0   0   0   0   6   0   6   6   0   0   0   0   0   5   0   0   0   0   3   0   0   0  15 98 80 79 78 77 74 71 70 68 65 60 59 50 47 38 
   6   0   0   0   0   0   0   0   0   8   0   0   0   0   0   0   8   0   0   0   0   0   0   0   3   0   0   0   0   2   0  18 99 98 93 91 90 77 76 75 74 71 70 69 65 64 62 61 52 50 
   8   0   0   0   0   9   0   0   4   0   0   0   0   9   0   0   0   0   0   0   0   0   0   0   0   0   0   0   0   0   0  14 101 99 93 77 76 75 68 66 62 61 59 51 50 36 
   7   0   0   0   0   0   0   4   0   0   2   0   8   0   0   6   0   8   0   0   0   0   0   0   7   0   0   0   0   0   0  15 100 99 98 95 93 77 76 69 67 66 64 60 59 51 47 
   2   0   0   0   0   0   0   0   5   0   0   0   0   0   0   6   0   0   0   0   0   0   3   0   0   6   0   0   0   0   0  18 101 100 97 96 95 93 77 75 71 68 67 66 64 62 58 56 51 50 
   9   0   0   0   0   0   0   0   0   0   9   0   7   0   0   0   0   5   0   0   0   0   0   7   0   0   0   0   0   6   0  13 99 97 96 95 94 90 78 76 70 69 66 60 49 
   5   0   5   0   0   0   0   0   0   0   0   0   0   0   0   0   0   0   0   0   0   8   0   9   6   0   0   0   5   0   0  12 100 98 97 96 94 87 82 76 70 66 62 38 
   8   0   0   0   0   0   9   0   0   0   0   0   0   0   0   0   0   0   0   0   0   0   0   0   3   0   2   0  10   0   0  10 99 97 96 93 76 71 68 62 59 36 
   4   0   0   0   0   0   0   0   0   0   0   7   0   0   0   0   0   0   0   0   0   0   0   0   0   0   0   0   4   0   0  10 99 96 87 76 74 72 70 68 56 38 
   7   8   0   0   0   0   0   0   0   6   0   0   0   0   0   0   0   0   0   0   0   0   0   7   0   0   0   0   0   0   0  15 99 97 96 95 93 92 89 88 86 74 71 68 62 59 51 
   8   0   0   0   0   0   9   0   0   0   0   0   0   0   0   0   0   0   0   0   0   0   6   5   0   0   0   0   0   0   0  13 97 94 93 91 80 75 74 70 69 68 61 59 56 
   9   0   0   0   3   0   4   0   0   0   0   0   0   0   0   0   0   5   0   0  10   0   4   0   0   0   0   0   0   0   0  13 97 96 95 93 92 80 75 70 68 62 56 51 50 
   2   0   0   0   0   0   0   0   0   0   0   0   0   0   0   0   0   0   0   0   0   0   0   6   0   0   3   0   0   0   0  11 98 97 95 93 78 76 71 69 64 60 47 
   6   0   0   0   0   6   0   7   5   0   0   0   0   0   0   0   0   0   0   0   0   0   0   0   0   5   0   0   0   0   0  11 97 96 95 91 90 75 74 69 68 62 50 
   3   0   0   0   0   0   0   0   0   0   0   0   0   0   7   0   0   0   0   4   0   6   0   0   0   0   0   0   0   9   0  10 99 96 95 92 91 89 68 62 54 50 
   8   0   0   0   0   0   6   0   0   4   2   0   8   0   0   4   0   0   6   0   0   0   6   0   6   0   6   0   0   0   0   9 99 95 94 93 90 71 70 66 47 
  10   0   0   1   0   0   0   0   0   0   0   0   0   0   0   0   0   0   0   0   0   0   4   0   0   0   0   0   0   0   0  11 101 95 93 90 88 74 71 70 69 68 62 
   8   0   0   0   0   0   0   0   0   0   0   0   0   0   7   0   0   0   7   0   0   0   0   0   0   0   4   0   0   0   0  15 100 97 95 94 92 91 90 89 85 84 75 74 73 71 70 
   3   0   0   0   0   0   0   0   0   0   8   6   0   0   0   0   0   0   0   0   0   0   0   0   0   0   0   7   0   0   0  11 99 95 93 89 86 78 74 73 61 60 59 
   4   0   0   0   0   0   0   0   0   0   0   0   4   0   0   5   0   0   0   0   0   0   5   0   0   4   0   0   6   1   0  13 97 95 93 92 89 87 85 84 82 78 74 70 66 
   1   0   7  10   0   0   4   0   0   0   0  10   0   0   0   0   0   0   0   0   0   0   0   0   0   0   0   0   0   0   0  12 95 94 91 90 88 86 85 84 82 74 73 69 
   3   0   7   0   0   2   0   0   0   0   7   0   0   0   0   0   0   0   0   0   0   6   7   0   0   0   0   0   0   7   0  12 97 93 90 89 88 87 86 85 75 74 73 64 
   4   0   0   0   0   8   0   0   0   0   3   0   0   0   0   0   0   0   6   0   0   0   0   0   0   0   0   0   0   0   0  12 95 93 91 90 88 86 85 84 83 75 73 69 
   8   0   0   0   0   0   0   0   0   0   0   0   0   0   0   0   0   0   0   0   0   0   0   0   0   3   0   0   0   5   0  10 98 93 91 90 89 88 87 86 82 62 
   2   8   0   0   0   0   7   0   0   0   0   0   0   0   0   0   9   0   0   5   6   0   0   0   0   0   0   0   0   2   0  10 94 92 90 89 88 87 86 82 74 62 
   9   0   0   4   0   0   5   9   0   0   0   6   0   0   0   0   0   0   0   0   0   0   0   0   0  10   0   0   0   0   0  10 94 93 91 89 88 87 86 82 79 62 
   4   0   0   0   0   0   0   0   0   0   0   0   0   0   0   0   0   0   0   0   6   0   3   0   0   5   0   0   0   0   0   9 100 95 93 92 89 86 85 68 59 
   2   0   0   0   7   0   0   0   0   0  10   0   0   0   0   0   0   0   0   0   0   7   0   0   0   0   0   0   0   0   7  11 98 94 93 91 90 89 87 86 81 74 68 
   2   0   0   0   0   0   0   0   0   0   0   0   0   0   0  10   7   0   0   0   0   0   0   0   0   0   0   0   4   0   0  11 97 96 92 90 89 87 86 82 81 74 66 
   9   0   0   0   0   0   0   0   0   0   0   0   0   0   0   0   0   0   0   0   0   0   0   0   0   0   0   0   0   0   0  10 91 90 89 88 87 86 85 74 73 68 
   5   0   0   0   0   0   7   0   0   7   6   0   0   7   0   5   0   0   0   7   0   0   0   0   0   0   0   0   6   0   0   8 94 93 92 90 88 87 68 62 
   3   0   0   0   0   0   3   0   0   0   0   0   0   0   0   0   0   0   0   0   0   0   9   0   0   0   0   0   0   0   0   7 96 92 89 87 86 82 62 
   9   0   0   0   0   0   0   0   0   0   0   0   0   0   7   0   0   0   0   0   0   0   0   0   0   0   0   0   0   0   0   9 99 96 92 91 86 83 81 79 68 
   7   0   0   0   0   3   0   0   0   0   0   0   0   0   0   0   6   0   0   0   0   0   0   0   0   0   0   0   0   0   0   8 93 91 89 87 85 83 73 68 
   6   0   0   0   0   0   0   0   0   0   0   0   0   0   0   0   0   0   0   0   0   0   0   0   0   0   0   0   0   8   0   9 94 88 87 86 85 84 83 82 73 
  10   6   0   7   0   0   0   0   0   0   0   0   0   0   9   0   0   0   0   0   0   0   0   0   0   0   0   0   0   0   0   7 94 91 87 85 83 82 73 
   9   0   0   0   0   0   0   0   0   0   0   5   0   0   0   0   0   6   0   0   0   0   4   0   0   0   0   0   0   9   0   6 100 92 86 85 81 68 
   3   0   0   0   0   0   0   0   0   8   0   0   0   4   0   0   0   0   0   0   0   0   0   0   0   0   0   0   0   0   0   6 89 87 85 83 81 68 
  10   4   0   0   0   0   0   0   0   0   0   0   0   0   0   0   0   4   0   0   0   8   0   2   0   0   0   8   0   0   0   7 98 97 94 90 88 86 84 
   7   0   7   4   0   0   0   0   0   0   4   0   0   0   0   0   0   0   0   0   6   0   0   0   0   0   0   0   0   0   0   7 93 91 89 87 85 84 82 
   1   0   0   0   0   0   0   0   9   0   0   0   0   0   7   0   0   0   0   0   0   0   0   0   0   0   0   0   0   0   0   6 90 86 85 84 83 82 
   2   0   0   0   0   0   0   0   0   0   0   0   0   0   0   0   0   0   0   4   0   6   0   0   0   0   0   0   0   0   0   6 97 89 88 87 83 82 
   4   6   0   0   0   0   0   0   7   0   0   0   0   6   0   9   0   0   4   0   0   0   0   0   0   0   0   0   0   0   7   6 90 87 85 84 83 81 
   5   0   0   0   4   0   0   0   0   0   0   0   5   0   0   0   0   0   6   0   5   0   0   0   0   0   0   0   0   0   0   5 90 87 83 82 81 
   3   0   0   0   9   0   0   0   0   0   0   0   0   0   0   0   0   0   0   0   0   7   0   0  10   0   9   0   0   0   0   5 91 88 85 82 81 
   3   0   9   0   0   0   0   0   0   0   0   0   0   0   0   0   0   0   0   0   0   0   0   0   0   9   0   0   0   0   0   5 96 88 85 83 82 
   9   0   0   0   9   0   0   5   0   0   0   0   0   0   0   0   0   0   0   0   0   0   0   0   6   5   0   0   0   0   0   4 85 84 83 73 
  10   0   0   0   8   4   0   0   0   0   0   0   0   0   0   0   0   0   0   0   0   0   0   0   0   0   0   0   0   8   6   4 98 86 83 73 
   9   0   0   0   0   0   0   0   0   0   0   0   0   0   6   0   0   0   0   9   0   0   0   0   0   0   0   0   0   0   0   4 84 83 82 81 
   3   0   0   0  10   0   0   5   0   3   0   0   0   0   0  10   0   0   0   6   0   9   0   0   0   0   5   0   0   0   0   4 95 92 82 81 
   3   0   0   0   0   0   0   0   0   0   0   0   0   0   0   0   0   0   0   7   0   0   0   0   0   0   0   0   0   0   0   3 91 88 83 
   2   0   0   0   0   0   0   0   7   0   0   0   0   0   0   0   0   0   8   0   0   0   0   0   0   0   0  10   0   0   0   3 94 86 81 
   9   0   0   0   0   0   0   0   0   0   0   0   0   8   0   7   0   0   0   0   0   0   0   0   0   0   0   0   0   0   7   2 84 82 
   1   0   0   8   0   0   0   0   0   0   0   0   0   0   0   0   0   3   0   0   0   0   0  10   0   0   0   0   0   0   0   2 92 89 
   2   0   0   0   0   0   0   0   0   0   0   0   0   0   0   0   0   6   0   0   0   0   0   0   0   0   0   0   0   0   0   2 86 81 
   1   0   7   0   0   0   0   0   0   3   0   0   0   4   1   0   0   5   0   0   0   0   0   0   0   0   0   0   0   6   0   2 87 82 
   8   0   0   0   0   0   0   0   0   0   0   6   0   0   0   0   0   0   0   0   0   0   0   0   0   0   0   5   0   7   0   2 88 82 
   3   0   0   0   0   0   0   0   0   5   0   0   0   0   0   0   0   9   0   0   0   0   0   0   0   0   0   0   0   0   0   1 81 
   2   0   0   0   0   0   6   7   0   0   0   8  10   0   0   0   0   7   0   0   5   5   0   0   0   0   9   0   0   0   0   1 83 
   9   6   0   0   0   0   0   0   0   0   0   0   0   6   0   0   0   0   0   7   0   0   4   0   0   0   0   0   0   0   0   1 81 
   3   0   0   0   0   0   7   0   4   6   0   0   0   0   0   0   0   0   0   0   0   0   0   0   0   0   0   0   0   7   0   1 84 
   1   0   0   0   0   0   0   0   0   8   6   0   0   0   0   0   0   0   0   0   0   0   0   0   0   0   0   0   0   0   0   1 86 
   3   0   0   0   0   4   0   0   0   0   0   4   0   0   0   0   0   0   0   0   8   7   0   0   0   5   0   0   2   0   0   1 88 
   1   0   0   0   0   0   0   0   0  10   0   0   5   0   0   0   0   0   0   0   0   0   9   3   0   0   0   0   0   0   9   1 84 
   4   0  10   0   0   0   0   0   0   0   0   0   0   6   0   0   0  10   0   0   0   0   0   3   0   0  10   0   0   0   0   1 84 
   8   0   4   0   0   0   0  10   7   0   0   0   0   0   0   0   0   0   0   0   0   5   0   0   0   0   0   7   0   0   0   1 102
   3   0   0   0   3   0   0   0   0   0   0   0   0   0   0   0   0   0   0   0   0   0   0   0   0   0   0   0   0   0   0   1 102
   4  10   0   0   0   0   0   0   0   0   0   0   0   0   0   0   0   8   0   0   0   0   0   0   0   0   0   0   0  10   0   1 102
   6   0   3   0   0   9   0   0   0   0   0   0   0   0   8   0   4   0   0   0   0   0  10   0   0   0   0   0   0   0   7   1 102
   8   0   0   0   0   4   0   0   0   0   8   0   0   0   0   0   5   0  10   0   0   0   0   0   0   0   0   0   0   4   0   1 102
   1   0   0   4   0   7   0   0  10   0   0   0   0   0   0   0   0   0   0   4   0   0   0   0   0   6   0   0   0   0   0   1 102
   8   0   0   0   0   0   0   0   0   0   0   0   0   0   0   0   0   0   0   0   6   0   0   0   0   0   0   0   0   0   0   1 102
   6   0   0   0   0   6   0   0   0   0   0   5   0   0   0   0   0   0   0   0   0   0   0   0   0   0   8   0   0   0   0   1 102
  10   0   5   0   4   0   0   0   0   0   0   0   0   0   0   0   0   3   0   0   0   0   0   8   0   0   6   0   0   0   0   1 102
   8   0   0   7   0   8   0   0   0   0   0   0   0   0   0   0   0   0   0   0   0   0   0   0   0   0   0   0   0   0   0   1 102
  10   0   0   0   0   9   0   0   0   0   0   0   0   0   0   0   7   0   0   0   0   0   0   5   0   5   0   0   0   9   0   1 102
   1   0   0   0   0   0   0   0   0   0   0   0   0   0   0   0   7   0   0  10   0   0   0   0  10   0   0   8   0   0   0   1 102
   5   5   0   0   0   0   0   7   0   0   0   0   0   0   0   0   0   0   0   0   0   0  10   0   0   0   3   0   9   0   0   1 102
   3   0   0   9   0   0   0   0   0  10   7   0   0   0   0   0   0   0   0   7   0   8   0   0   7   0   0   0   0   0   0   1 102
   4   0   0   0   0   0   0   0   0   0   0   0   0   7   0   3   0   0   0   0   0   0   8   0   0   8   0   0   0   0   5   1 102
   8   0   0   0   0   0   0   0   0   8   0   7   0   0   0   0   0   5   0   5   0   0   0   0   5   0   0   0   0   0   5   1 102
   7   0   0   0   0   0   0   5   0   3   0   0   0   0   0   0   0   0   0   6   0   0   0   0   0   8   0   7   0   0   0   1 102
   2   0   0   0   0   0   0   5   0   0   0   0   0   0   7   0   0   0   0   0   0   0   0   0   6   0   3   0   0   0   0   1 102
   2   0   0   6   0   0   5   0   0   0   0   0   0   0   0   0   0   0   0   0   0   0   5   0   0   0   0   0   0   0   0   1 102
   1   5   0   0   6   0   7   0   0   0   0   0   5   0   0   0   0   0   0   0   0   6   0   0   0   0  10   4   0   0   0   1 102
   4   0   0   0   0   0   0   0   0   0   0   0   0   7   0   0   0   0   0   0   0   0   0   8   0   0   0   0   9   4   0   1 102
   0   0   0   0   0   0   0   0   0   0   0   0   0   0   0   0   0   0   0   0   0   0   0   0   0   0   0   0   0   0   0   0 
